\* The_mapping_Problem *\
Minimize
OBJ: 2 x_(1,_1) + 2 x_(1,_2) + 2 x_(1,_3) + 2 x_(2,_1) + 2 x_(2,_2)
 + 2 x_(2,_3)
Subject To
C1_1: 2 x_(1,_1) + 2 x_(2,_1) <= 10
C1_2: 2 x_(1,_2) + 2 x_(2,_2) <= 10
C1_3: 2 x_(1,_3) + 2 x_(2,_3) <= 10
C2_12: 2 y_(12,_12) <= 10
C2_13: 2 y_(12,_13) <= 10
C2_23: 2 y_(12,_23) <= 10
C3_1: x_(1,_1) + x_(2,_1) <= 1
C3_2: x_(1,_2) + x_(2,_2) <= 1
C3_3: x_(1,_3) + x_(2,_3) <= 1
C4_1: x_(1,_1) + x_(2,_1) = 1
C4_2: x_(1,_2) + x_(2,_2) = 1
C4_3: x_(1,_3) + x_(2,_3) = 1
C5_1: - x_(1,_1) + x_(2,_1) + y_(12,_12) + y_(12,_13) - y_(12,_21)
 - y_(12,_31) = 0
C5_2: - x_(1,_2) + x_(2,_2) - y_(12,_12) + y_(12,_21) + y_(12,_23)
 - y_(12,_32) = 0
C5_3: - x_(1,_3) + x_(2,_3) - y_(12,_13) - y_(12,_23) + y_(12,_31)
 + y_(12,_32) = 0
Binaries
x_(1,_1)
x_(1,_2)
x_(1,_3)
x_(2,_1)
x_(2,_2)
x_(2,_3)
y_(12,_12)
y_(12,_13)
y_(12,_21)
y_(12,_23)
y_(12,_31)
y_(12,_32)
End
